(set-logic ALL)
(declare-const k Int)
(declare-fun s () (_ BitVec k))
(declare-fun t () (_ BitVec k))
(assert (distinct (bvor s (bvlshr (_ bv1 k) (bvurem (_ bv1 k) t))) (bvand s (bvurem t (bvurem (_ bv1 k) t)))))
(check-sat)
